80 8
91 91
36 36
83 83
59 59
88 88
48 48
65 65
17 17
87 87
86 86
75 75
31 31
27 27
44 44
15 15
31 31
39 39
96 96
88 88
10 10
13 13
40 40
7 7
30 30
1 1
27 27
7 7
90 90
12 12
64 64
16 16
77 77
39 39
74 74
12 12
36 36
18 18
79 79
43 43
70 70
59 59
30 30
54 54
98 98
9 9
6 6
93 93
49 49
57 57
7 7
12 12
100 100
87 87
65 65
86 86
91 91
100 100
68 68
93 93
92 92
13 13
35 35
11 11
62 62
4 4
50 50
83 83
66 66
52 52
5 5
97 97
10 10
16 16
43 43
7 7
93 93
37 37
7 7
85 85
63 63
462 518
386 475
450 558
560 631
489 601
530 596
473 561
443 521
